NAME : in_house_9_8
TYPE : TSP
DIMENSION : 9
EDGE_WEIGHT_TYPE : EXPLICIT
EDGE_WEIGHT_FORMAT : UPPER_ROW
COMMENT : INVERSION_SHIFT=2
EDGE_WEIGHT_SECTION
34
77
62
78
80
76
39
10
58
32
60
63
19
25
61
51
40
44
36
76
20
45
54
59
31
18
8
20
44
60
15
10
71
9
24
63
